TYPE : Vertex Cover
DIMENSION: 26
EDGE_DATA_SECTION:
0 2
0 7
0 24
1 21
1 24
2 7
2 20
2 25
3 6
3 10
3 14
3 21
3 24
4 18
4 22
5 11
6 13
6 14
7 12
7 13
7 16
8 12
8 16
8 17
8 22
9 20
9 22
9 24
10 16
10 20
10 25
13 21
13 25
14 23
14 25
16 19
17 21
17 23
17 25
18 21
18 23
21 25
22 25
-1
VERTEX_DEGREE:
3.0 2.0 4.0 5.0 2.0 1.0 3.0 5.0 4.0 3.0 4.0 1.0 2.0 4.0 4.0 0.0 4.0 4.0 3.0 1.0 3.0 6.0 4.0 3.0 4.0 7.0
VERTEX_COVER:
0 1 3 4 6 7 8 9 11 16 20 21 23 25
EOF
